<?xml version = "1.0" standalone="yes"?>
<!-- This file has been generated by DOcplex version 2.23.222  -->
<CPLEXSolution version="1.0">
 <header
   problemName="CVRP"
   objectiveValue="8612.49"
  />
 <variables>
  <variable name="x_0_1" index="0" value="1.00000"/>
  <variable name="x_0_2" index="1" value="1.00000"/>
  <variable name="x_0_4" index="3" value="1.00000"/>
  <variable name="x_0_5" index="4" value="1.00000"/>
  <variable name="x_0_6" index="5" value="1.00000"/>
  <variable name="x_0_7" index="6" value="1.00000"/>
  <variable name="x_1_3" index="13" value="1.00000"/>
  <variable name="x_2_0" index="22" value="1.00000"/>
  <variable name="x_3_9" index="41" value="1.00000"/>
  <variable name="x_4_8" index="51" value="1.00000"/>
  <variable name="x_5_0" index="55" value="1.00000"/>
  <variable name="x_6_10" index="75" value="1.00000"/>
  <variable name="x_7_11" index="87" value="1.00000"/>
  <variable name="x_8_0" index="88" value="1.00000"/>
  <variable name="x_9_0" index="99" value="1.00000"/>
  <variable name="x_10_0" index="110" value="1.00000"/>
  <variable name="x_11_0" index="121" value="1.00000"/>
  <variable name="u_1" index="132" value="2.00000"/>
  <variable name="u_2" index="133" value="72.00000"/>
  <variable name="u_3" index="134" value="66.00000"/>
  <variable name="u_4" index="135" value="36.00000"/>
  <variable name="u_5" index="136" value="47.00000"/>
  <variable name="u_6" index="137" value="11.00000"/>
  <variable name="u_7" index="138" value="49.00000"/>
  <variable name="u_8" index="139" value="65.00000"/>
  <variable name="u_9" index="140" value="69.00000"/>
  <variable name="u_10" index="141" value="54.00000"/>
  <variable name="u_11" index="142" value="66.00000"/>
 </variables>
</CPLEXSolution>
